letting n =  10
letting blocks =  [[1, 2], [1, 3], [1, 6], [1, 8], [2, 1], [2, 8], [2, 10], [3, 2], [3, 5], [3, 7], [3, 10], [4, 1], [4, 3], [4, 5], [4, 8], [4, 10], [5, 4], [5, 8], [6, 5], [6, 6], [6, 7], [7, 1], [7, 4], [7, 5], [7, 9], [8, 1], [8, 3], [8, 10], [9, 5], [9, 6], [9, 7], [9, 8], [10, 1], [10, 10]]
